; chc-comp19-benchmarks/./lra-ts/chc-lra-ts-0113_000.smt2
(set-logic HORN)

(declare-fun |state| ( Bool Bool Bool Bool Real Real Real Real Real Real Real Real Real Real Real Real Real Real Real Real Real Real Real Real Real Real Real Real Real Real Real ) Bool)

(assert
  (forall ( (A Bool) (B Bool) (C Bool) (D Bool) (E Real) (F Real) (G Real) (H Real) (I Real) (J Real) (K Real) (L Real) (M Real) (N Real) (O Real) (P Real) (Q Real) (R Real) (S Real) (T Real) (U Real) (V Real) (W Real) (X Real) (Y Real) (Z Real) (A1 Real) (B1 Real) (C1 Real) (D1 Real) (E1 Real) ) 
    (=>
      (and
        (and (not C) (not B) (not A) (not D))
      )
      (state A B C D E F G H I J K L M N O P Q R S T U V W X Y Z A1 B1 C1 D1 E1)
    )
  )
)
(assert
  (forall ( (A Bool) (B Bool) (C Bool) (D Bool) (E Real) (F Real) (G Real) (H Real) (I Real) (J Real) (K Real) (L Real) (M Real) (N Real) (O Real) (P Real) (Q Real) (R Real) (S Real) (T Real) (U Real) (V Real) (W Real) (X Real) (Y Real) (Z Real) (A1 Real) (B1 Real) (C1 Real) (D1 Real) (E1 Real) (F1 Real) (G1 Real) (H1 Real) (I1 Real) (J1 Real) (K1 Real) (L1 Real) (M1 Real) (N1 Real) (O1 Real) (P1 Real) (Q1 Real) (R1 Real) (S1 Real) (T1 Real) (U1 Real) (V1 Real) (W1 Real) (X1 Real) (Y1 Real) (Z1 Real) (A2 Real) (B2 Real) (C2 Real) (D2 Real) (E2 Real) (F2 Real) (G2 Real) (H2 Bool) (I2 Bool) (J2 Bool) (K2 Bool) (L2 Real) (M2 Real) (N2 Real) (O2 Real) (P2 Real) (Q2 Real) (R2 Real) ) 
    (=>
      (and
        (state A B C D E F G H I J K L M N O P Q R S T U V W X Y Z A1 B1 C1 D1 E1)
        (let ((a!1 (and (= V1 R2)
                (= X1 C1)
                (not (= X1 0.0))
                (= X1 5.0)
                (not (= X1 4.0))
                (not (= X1 3.0))
                (not (= X1 2.0))
                (not (= X1 1.0))
                (= P P2)
                (= (+ V1 (* (- 1.0) C1)) 1.0)))
      (a!2 (and (= V1 P2)
                (= X1 C1)
                (not (= X1 0.0))
                (= X1 6.0)
                (not (= X1 5.0))
                (not (= X1 4.0))
                (not (= X1 3.0))
                (not (= X1 2.0))
                (not (= X1 1.0))
                (= O R2)
                (= (+ V1 (* (- 1.0) C1)) 1.0)))
      (a!3 (and (= V1 N2)
                (= X1 C1)
                (not (= X1 0.0))
                (= X1 4.0)
                (not (= X1 3.0))
                (not (= X1 2.0))
                (not (= X1 1.0))
                (= O R2)
                (= P P2)
                (= (+ V1 (* (- 1.0) C1)) 1.0)))
      (a!5 (and (= V1 M2)
                (= X1 C1)
                (not (= X1 0.0))
                (= X1 3.0)
                (not (= X1 2.0))
                (not (= X1 1.0))
                (= N N2)
                (= O R2)
                (= P P2)
                (= (+ V1 (* (- 1.0) C1)) 1.0)))
      (a!6 (and (= V1 O2)
                (= X1 C1)
                (not (= X1 0.0))
                (= X1 2.0)
                (not (= X1 1.0))
                (= M M2)
                (= N N2)
                (= O R2)
                (= P P2)
                (= (+ V1 (* (- 1.0) C1)) 1.0)))
      (a!8 (and (= V1 Q2)
                (= X1 C1)
                (not (= X1 0.0))
                (= X1 1.0)
                (= L O2)
                (= M M2)
                (= N N2)
                (= O R2)
                (= P P2)
                (= (+ V1 (* (- 1.0) C1)) 1.0)))
      (a!9 (and (= V1 L2)
                (= X1 C1)
                (= X1 0.0)
                (= J Q2)
                (= L O2)
                (= M M2)
                (= N N2)
                (= O R2)
                (= P P2)
                (= (+ V1 (* (- 1.0) C1)) 1.0)))
      (a!10 (or (= E1 0.0)
                (= E1 6.0)
                (= E1 5.0)
                (= E1 4.0)
                (= E1 3.0)
                (= E1 2.0)
                (= E1 1.0)))
      (a!24 (and (= T1 V1)
                 (= X1 C1)
                 (not (= X1 0.0))
                 (= X1 5.0)
                 (not (= X1 4.0))
                 (not (= X1 3.0))
                 (not (= X1 2.0))
                 (not (= X1 1.0))
                 (= P U1)
                 (= (+ V1 (* (- 1.0) C1)) 1.0)))
      (a!25 (and (= U1 V1)
                 (= X1 C1)
                 (not (= X1 0.0))
                 (= X1 6.0)
                 (not (= X1 5.0))
                 (not (= X1 4.0))
                 (not (= X1 3.0))
                 (not (= X1 2.0))
                 (not (= X1 1.0))
                 (= O T1)
                 (= (+ V1 (* (- 1.0) C1)) 1.0)))
      (a!26 (and (= S1 V1)
                 (= X1 C1)
                 (not (= X1 0.0))
                 (= X1 4.0)
                 (not (= X1 3.0))
                 (not (= X1 2.0))
                 (not (= X1 1.0))
                 (= O T1)
                 (= P U1)
                 (= (+ V1 (* (- 1.0) C1)) 1.0)))
      (a!28 (and (= R1 V1)
                 (= X1 C1)
                 (not (= X1 0.0))
                 (= X1 3.0)
                 (not (= X1 2.0))
                 (not (= X1 1.0))
                 (= N S1)
                 (= O T1)
                 (= P U1)
                 (= (+ V1 (* (- 1.0) C1)) 1.0)))
      (a!29 (and (= X1 C1)
                 (not (= X1 0.0))
                 (= X1 2.0)
                 (not (= X1 1.0))
                 (= M R1)
                 (= N S1)
                 (= O T1)
                 (= P U1)
                 (= Q1 V1)
                 (= (+ V1 (* (- 1.0) C1)) 1.0)))
      (a!31 (and (= X1 C1)
                 (not (= X1 0.0))
                 (= X1 1.0)
                 (= L Q1)
                 (= M R1)
                 (= N S1)
                 (= O T1)
                 (= P U1)
                 (= O1 V1)
                 (= (+ V1 (* (- 1.0) C1)) 1.0)))
      (a!32 (and (= X1 C1)
                 (= X1 0.0)
                 (= J O1)
                 (= L Q1)
                 (= M R1)
                 (= N S1)
                 (= O T1)
                 (= P U1)
                 (= G1 V1)
                 (= (+ V1 (* (- 1.0) C1)) 1.0)))
      (a!41 (or (and (= D2 0.0) (= G D2) (= M1 D1))
                (and (not (= D2 0.0)) (= D2 1.0) (= G D2) (= M1 J))
                (and (not (= D2 0.0))
                     (= D2 2.0)
                     (not (= D2 1.0))
                     (= G D2)
                     (= M1 L))
                (and (not (= D2 0.0))
                     (= D2 3.0)
                     (not (= D2 2.0))
                     (not (= D2 1.0))
                     (= G D2)
                     (= M1 M))
                (and (not (= D2 0.0))
                     (= D2 4.0)
                     (not (= D2 3.0))
                     (not (= D2 2.0))
                     (not (= D2 1.0))
                     (= G D2)
                     (= M1 N))
                (and (not (= D2 0.0))
                     (= D2 5.0)
                     (not (= D2 4.0))
                     (not (= D2 3.0))
                     (not (= D2 2.0))
                     (not (= D2 1.0))
                     (= G D2)
                     (= M1 O))
                (and (not (= D2 0.0))
                     (= D2 6.0)
                     (not (= D2 5.0))
                     (not (= D2 4.0))
                     (not (= D2 3.0))
                     (not (= D2 2.0))
                     (not (= D2 1.0))
                     (= G D2)
                     (= M1 P))))
      (a!46 (and A
                 (not B)
                 (not C)
                 (not D)
                 (not H2)
                 (not I2)
                 J2
                 (not K2)
                 (= X1 C1)
                 (not (= X1 0.0))
                 (not (= X1 6.0))
                 (not (= X1 5.0))
                 (not (= X1 4.0))
                 (not (= X1 3.0))
                 (not (= X1 2.0))
                 (not (= X1 1.0))
                 (= E J1)
                 (= F K1)
                 (= G L1)
                 (= H M1)
                 (= I N1)
                 (= J O1)
                 (= K P1)
                 (= L Q1)
                 (= M R1)
                 (= N S1)
                 (= O T1)
                 (= P U1)
                 (= R W1)
                 (= T Y1)
                 (= U Z1)
                 (= V A2)
                 (= W B2)
                 (= X C2)
                 (= Y D2)
                 (= Z E2)
                 (= A1 F2)
                 (= B1 G2)
                 (= F1 C1)
                 (= G1 D1)
                 (= H1 E1)
                 (= (+ V1 (* (- 1.0) C1)) 1.0))))
(let ((a!4 (and (or (and (or a!1 a!2) (= N N2)) a!3) (= M M2)))
      (a!27 (and (or (and (or a!24 a!25) (= N S1)) a!26) (= M R1)))
      (a!42 (or (and a!41 (not (<= N1 X)) (= G B2) (= M1 N1) (= N1 C2))
                (and a!41 (<= N1 X) (= W B2) (= X C2) (= M1 N1)))))
(let ((a!7 (and (or (and (or a!4 a!5) (= L O2)) a!6) (= J Q2)))
      (a!30 (and (or (and (or a!27 a!28) (= L Q1)) a!29) (= J O1)))
      (a!43 (and A
                 (not B)
                 C
                 (not D)
                 (not H2)
                 I2
                 (not J2)
                 K2
                 a!42
                 (not (<= 7.0 L1))
                 (= E J1)
                 (= F K1)
                 (= J O1)
                 (= K P1)
                 (= L Q1)
                 (= M R1)
                 (= N S1)
                 (= O T1)
                 (= P U1)
                 (= Q V1)
                 (= R W1)
                 (= S X1)
                 (= T Y1)
                 (= U Z1)
                 (= V A2)
                 (= Z E2)
                 (= A1 F2)
                 (= B1 G2)
                 (= F1 C1)
                 (= G1 D1)
                 (= H1 E1)
                 (= (+ G (* (- 1.0) L1)) (- 1.0))))
      (a!44 (and A
                 (not B)
                 C
                 (not D)
                 (not H2)
                 I2
                 J2
                 K2
                 a!42
                 (<= 7.0 L1)
                 (not (= B2 E1))
                 (= E J1)
                 (= F K1)
                 (= J O1)
                 (= K P1)
                 (= L Q1)
                 (= M R1)
                 (= N S1)
                 (= O T1)
                 (= P U1)
                 (= Q V1)
                 (= R W1)
                 (= S X1)
                 (= T Y1)
                 (= U Z1)
                 (= V A2)
                 (= Z E2)
                 (= A1 F2)
                 (= B1 G2)
                 (= F1 C1)
                 (= G1 D1)
                 (= H1 E1)
                 (= (+ G (* (- 1.0) L1)) (- 1.0)))))
(let ((a!11 (and (or (and (or a!7 a!8) (= D1 L2)) a!9)
                 a!10
                 (<= 7.0 F1)
                 (= Y1 0.0)
                 (= J1 L2)
                 (= K1 Y1)
                 (= K1 E1)
                 (= (+ F1 (* (- 1.0) C1)) 1.0)))
      (a!12 (and (or (and (or a!7 a!8) (= D1 L2)) a!9)
                 a!10
                 (<= 7.0 F1)
                 (not (= Y1 0.0))
                 (= Y1 1.0)
                 (= J1 Q2)
                 (= K1 Y1)
                 (= K1 E1)
                 (= (+ F1 (* (- 1.0) C1)) 1.0)))
      (a!13 (and (or (and (or a!7 a!8) (= D1 L2)) a!9)
                 a!10
                 (<= 7.0 F1)
                 (not (= Y1 0.0))
                 (= Y1 2.0)
                 (not (= Y1 1.0))
                 (= J1 O2)
                 (= K1 Y1)
                 (= K1 E1)
                 (= (+ F1 (* (- 1.0) C1)) 1.0)))
      (a!14 (and (or (and (or a!7 a!8) (= D1 L2)) a!9)
                 a!10
                 (<= 7.0 F1)
                 (not (= Y1 0.0))
                 (= Y1 3.0)
                 (not (= Y1 2.0))
                 (not (= Y1 1.0))
                 (= J1 M2)
                 (= K1 Y1)
                 (= K1 E1)
                 (= (+ F1 (* (- 1.0) C1)) 1.0)))
      (a!15 (and (or (and (or a!7 a!8) (= D1 L2)) a!9)
                 a!10
                 (<= 7.0 F1)
                 (not (= Y1 0.0))
                 (= Y1 4.0)
                 (not (= Y1 3.0))
                 (not (= Y1 2.0))
                 (not (= Y1 1.0))
                 (= J1 N2)
                 (= K1 Y1)
                 (= K1 E1)
                 (= (+ F1 (* (- 1.0) C1)) 1.0)))
      (a!16 (and (or (and (or a!7 a!8) (= D1 L2)) a!9)
                 a!10
                 (<= 7.0 F1)
                 (not (= Y1 0.0))
                 (= Y1 5.0)
                 (not (= Y1 4.0))
                 (not (= Y1 3.0))
                 (not (= Y1 2.0))
                 (not (= Y1 1.0))
                 (= J1 R2)
                 (= K1 Y1)
                 (= K1 E1)
                 (= (+ F1 (* (- 1.0) C1)) 1.0)))
      (a!17 (and (or (and (or a!7 a!8) (= D1 L2)) a!9)
                 a!10
                 (<= 7.0 F1)
                 (not (= Y1 0.0))
                 (= Y1 6.0)
                 (not (= Y1 5.0))
                 (not (= Y1 4.0))
                 (not (= Y1 3.0))
                 (not (= Y1 2.0))
                 (not (= Y1 1.0))
                 (= J1 P2)
                 (= K1 Y1)
                 (= K1 E1)
                 (= (+ F1 (* (- 1.0) C1)) 1.0)))
      (a!33 (and A
                 (not B)
                 (not C)
                 (not D)
                 (not H2)
                 (not I2)
                 (not J2)
                 K2
                 (or (and (or a!30 a!31) (= G1 D1)) a!32)
                 (not (<= 7.0 F1))
                 (= E J1)
                 (= F K1)
                 (= G L1)
                 (= H M1)
                 (= I N1)
                 (= K P1)
                 (= R W1)
                 (= T Y1)
                 (= U Z1)
                 (= V A2)
                 (= W B2)
                 (= X C2)
                 (= Y D2)
                 (= Z E2)
                 (= A1 F2)
                 (= B1 G2)
                 (= H1 E1)
                 (= (+ F1 (* (- 1.0) C1)) 1.0)))
      (a!34 (and (or (and (or a!30 a!31) (= G1 D1)) a!32)
                 a!10
                 (<= 7.0 F1)
                 (= Y1 0.0)
                 (= G1 J1)
                 (= K1 Y1)
                 (= K1 E1)
                 (= (+ F1 (* (- 1.0) C1)) 1.0)))
      (a!35 (and (or (and (or a!30 a!31) (= G1 D1)) a!32)
                 a!10
                 (<= 7.0 F1)
                 (not (= Y1 0.0))
                 (= Y1 1.0)
                 (= J1 O1)
                 (= K1 Y1)
                 (= K1 E1)
                 (= (+ F1 (* (- 1.0) C1)) 1.0)))
      (a!36 (and (or (and (or a!30 a!31) (= G1 D1)) a!32)
                 a!10
                 (<= 7.0 F1)
                 (not (= Y1 0.0))
                 (= Y1 2.0)
                 (not (= Y1 1.0))
                 (= J1 Q1)
                 (= K1 Y1)
                 (= K1 E1)
                 (= (+ F1 (* (- 1.0) C1)) 1.0)))
      (a!37 (and (or (and (or a!30 a!31) (= G1 D1)) a!32)
                 a!10
                 (<= 7.0 F1)
                 (not (= Y1 0.0))
                 (= Y1 3.0)
                 (not (= Y1 2.0))
                 (not (= Y1 1.0))
                 (= J1 R1)
                 (= K1 Y1)
                 (= K1 E1)
                 (= (+ F1 (* (- 1.0) C1)) 1.0)))
      (a!38 (and (or (and (or a!30 a!31) (= G1 D1)) a!32)
                 a!10
                 (<= 7.0 F1)
                 (not (= Y1 0.0))
                 (= Y1 4.0)
                 (not (= Y1 3.0))
                 (not (= Y1 2.0))
                 (not (= Y1 1.0))
                 (= J1 S1)
                 (= K1 Y1)
                 (= K1 E1)
                 (= (+ F1 (* (- 1.0) C1)) 1.0)))
      (a!39 (and (or (and (or a!30 a!31) (= G1 D1)) a!32)
                 a!10
                 (<= 7.0 F1)
                 (not (= Y1 0.0))
                 (= Y1 5.0)
                 (not (= Y1 4.0))
                 (not (= Y1 3.0))
                 (not (= Y1 2.0))
                 (not (= Y1 1.0))
                 (= J1 T1)
                 (= K1 Y1)
                 (= K1 E1)
                 (= (+ F1 (* (- 1.0) C1)) 1.0)))
      (a!40 (and (or (and (or a!30 a!31) (= G1 D1)) a!32)
                 a!10
                 (<= 7.0 F1)
                 (not (= Y1 0.0))
                 (= Y1 6.0)
                 (not (= Y1 5.0))
                 (not (= Y1 4.0))
                 (not (= Y1 3.0))
                 (not (= Y1 2.0))
                 (not (= Y1 1.0))
                 (= J1 U1)
                 (= K1 Y1)
                 (= K1 E1)
                 (= (+ F1 (* (- 1.0) C1)) 1.0)))
      (a!45 (and A
                 (not B)
                 (not C)
                 (not D)
                 (not H2)
                 (not I2)
                 J2
                 K2
                 (or (and (or a!30 a!31) (= G1 D1)) a!32)
                 a!10
                 (<= 7.0 F1)
                 (not (= Y1 0.0))
                 (not (= Y1 6.0))
                 (not (= Y1 5.0))
                 (not (= Y1 4.0))
                 (not (= Y1 3.0))
                 (not (= Y1 2.0))
                 (not (= Y1 1.0))
                 (= E J1)
                 (= G L1)
                 (= H M1)
                 (= I N1)
                 (= K P1)
                 (= R W1)
                 (= U Z1)
                 (= V A2)
                 (= W B2)
                 (= X C2)
                 (= Y D2)
                 (= Z E2)
                 (= A1 F2)
                 (= B1 G2)
                 (= H1 E1)
                 (= K1 Y1)
                 (= K1 E1)
                 (= (+ F1 (* (- 1.0) C1)) 1.0))))
(let ((a!18 (or (and (or a!11 a!12 a!13 a!14 a!15 a!16 a!17)
                     (= T1 G2)
                     (= W1 A2)
                     (= W1 P2)
                     (not (= Z1 0.0))
                     (= Z1 5.0)
                     (not (= Z1 4.0))
                     (not (= Z1 3.0))
                     (not (= Z1 2.0))
                     (not (= Z1 1.0))
                     (= A2 G2)
                     (= J1 F2)
                     (= K1 Z1))
                (and (or a!11 a!12 a!13 a!14 a!15 a!16 a!17)
                     (= T1 R2)
                     (= W1 A2)
                     (= W1 P2)
                     (not (= Z1 0.0))
                     (= Z1 6.0)
                     (not (= Z1 5.0))
                     (not (= Z1 4.0))
                     (not (= Z1 3.0))
                     (not (= Z1 2.0))
                     (not (= Z1 1.0))
                     (= A2 G2)
                     (= J1 F2)
                     (= K1 Z1)))))
(let ((a!19 (or (and a!18 (= S1 N2))
                (and (or a!11 a!12 a!13 a!14 a!15 a!16 a!17)
                     (= S1 G2)
                     (= T1 R2)
                     (= W1 A2)
                     (= W1 P2)
                     (not (= Z1 0.0))
                     (= Z1 4.0)
                     (not (= Z1 3.0))
                     (not (= Z1 2.0))
                     (not (= Z1 1.0))
                     (= A2 G2)
                     (= J1 F2)
                     (= K1 Z1)))))
(let ((a!20 (or (and a!19 (= R1 M2))
                (and (or a!11 a!12 a!13 a!14 a!15 a!16 a!17)
                     (= R1 G2)
                     (= S1 N2)
                     (= T1 R2)
                     (= W1 A2)
                     (= W1 P2)
                     (not (= Z1 0.0))
                     (= Z1 3.0)
                     (not (= Z1 2.0))
                     (not (= Z1 1.0))
                     (= A2 G2)
                     (= J1 F2)
                     (= K1 Z1)))))
(let ((a!21 (or (and a!20 (= Q1 O2))
                (and (or a!11 a!12 a!13 a!14 a!15 a!16 a!17)
                     (= R1 M2)
                     (= S1 N2)
                     (= T1 R2)
                     (= W1 A2)
                     (= W1 P2)
                     (not (= Z1 0.0))
                     (= Z1 2.0)
                     (not (= Z1 1.0))
                     (= A2 G2)
                     (= J1 F2)
                     (= K1 Z1)
                     (= Q1 G2)))))
(let ((a!22 (or (and a!21 (= O1 Q2))
                (and (or a!11 a!12 a!13 a!14 a!15 a!16 a!17)
                     (= R1 M2)
                     (= S1 N2)
                     (= T1 R2)
                     (= W1 A2)
                     (= W1 P2)
                     (not (= Z1 0.0))
                     (= Z1 1.0)
                     (= A2 G2)
                     (= J1 F2)
                     (= K1 Z1)
                     (= O1 G2)
                     (= Q1 O2)))))
(let ((a!23 (and A
                 (not B)
                 (not C)
                 (not D)
                 (not H2)
                 I2
                 (not J2)
                 K2
                 (or (and a!22 (= G1 L2))
                     (and (or a!11 a!12 a!13 a!14 a!15 a!16 a!17)
                          (= R1 M2)
                          (= S1 N2)
                          (= T1 R2)
                          (= W1 A2)
                          (= W1 P2)
                          (= Z1 0.0)
                          (= A2 G2)
                          (= G1 G2)
                          (= J1 F2)
                          (= K1 Z1)
                          (= O1 Q2)
                          (= Q1 O2)))
                 (= B2 0.0)
                 (= C2 0.0)
                 (= H M1)
                 (= I N1)
                 (= Y D2)
                 (= Z E2)
                 (= H1 E1)
                 (= L1 0.0)
                 (= P1 U1)
                 (= P1 F2))))
  (or (and A (not B) (not C) D H2 (not I2) (not J2) K2)
      a!23
      a!33
      (and A
           (not B)
           (not C)
           (not D)
           (not H2)
           I2
           (not J2)
           (not K2)
           (or a!34 a!35 a!36 a!37 a!38 a!39 a!40)
           (= U1 W1)
           (= W1 A2)
           (not (= Z1 0.0))
           (not (= Z1 6.0))
           (not (= Z1 5.0))
           (not (= Z1 4.0))
           (not (= Z1 3.0))
           (not (= Z1 2.0))
           (not (= Z1 1.0))
           (= A2 G2)
           (= G L1)
           (= H M1)
           (= I N1)
           (= K P1)
           (= W B2)
           (= X C2)
           (= Y D2)
           (= Z E2)
           (= H1 E1)
           (= J1 F2)
           (= K1 Z1))
      a!43
      a!44
      (and (not A)
           (not B)
           C
           (not D)
           H2
           (not I2)
           (not J2)
           K2
           (= E J1)
           (= F K1)
           (= G L1)
           (= H M1)
           (= I N1)
           (= J O1)
           (= K P1)
           (= L Q1)
           (= M R1)
           (= N S1)
           (= O T1)
           (= P U1)
           (= Q V1)
           (= R W1)
           (= S X1)
           (= T Y1)
           (= U Z1)
           (= V A2)
           (= W B2)
           (= X C2)
           (= Y D2)
           (= Z E2)
           (= A1 F2)
           (= B1 G2)
           (= F1 C1)
           (= G1 D1)
           (= H1 E1))
      (and (not A)
           B
           (not C)
           (not D)
           H2
           (not I2)
           (not J2)
           K2
           (= E J1)
           (= F K1)
           (= G L1)
           (= H M1)
           (= I N1)
           (= J O1)
           (= K P1)
           (= L Q1)
           (= M R1)
           (= N S1)
           (= O T1)
           (= P U1)
           (= Q V1)
           (= R W1)
           (= S X1)
           (= T Y1)
           (= U Z1)
           (= V A2)
           (= W B2)
           (= X C2)
           (= Y D2)
           (= Z E2)
           (= A1 F2)
           (= B1 G2)
           (= F1 C1)
           (= G1 D1)
           (= H1 E1))
      (and (not A)
           B
           C
           (not D)
           H2
           (not I2)
           (not J2)
           K2
           (= E J1)
           (= F K1)
           (= G L1)
           (= H M1)
           (= I N1)
           (= J O1)
           (= K P1)
           (= L Q1)
           (= M R1)
           (= N S1)
           (= O T1)
           (= P U1)
           (= Q V1)
           (= R W1)
           (= S X1)
           (= T Y1)
           (= U Z1)
           (= V A2)
           (= W B2)
           (= X C2)
           (= Y D2)
           (= Z E2)
           (= A1 F2)
           (= B1 G2)
           (= F1 C1)
           (= G1 D1)
           (= H1 E1))
      (and A
           B
           (not C)
           (not D)
           H2
           (not I2)
           (not J2)
           K2
           (= E J1)
           (= F K1)
           (= G L1)
           (= H M1)
           (= I N1)
           (= J O1)
           (= K P1)
           (= L Q1)
           (= M R1)
           (= N S1)
           (= O T1)
           (= P U1)
           (= Q V1)
           (= R W1)
           (= S X1)
           (= T Y1)
           (= U Z1)
           (= V A2)
           (= W B2)
           (= X C2)
           (= Y D2)
           (= Z E2)
           (= A1 F2)
           (= B1 G2)
           (= F1 C1)
           (= G1 D1)
           (= H1 E1))
      (and A
           B
           C
           (not D)
           H2
           (not I2)
           (not J2)
           K2
           (= E J1)
           (= F K1)
           (= G L1)
           (= H M1)
           (= I N1)
           (= J O1)
           (= K P1)
           (= L Q1)
           (= M R1)
           (= N S1)
           (= O T1)
           (= P U1)
           (= Q V1)
           (= R W1)
           (= S X1)
           (= T Y1)
           (= U Z1)
           (= V A2)
           (= W B2)
           (= X C2)
           (= Y D2)
           (= Z E2)
           (= A1 F2)
           (= B1 G2)
           (= F1 C1)
           (= G1 D1)
           (= H1 E1))
      (and (not A)
           (not B)
           (not C)
           (not D)
           (not H2)
           (not I2)
           (not J2)
           K2
           (= E J1)
           (= F K1)
           (= G L1)
           (= H M1)
           (= I N1)
           (= J O1)
           (= K P1)
           (= L Q1)
           (= M R1)
           (= N S1)
           (= O T1)
           (= P U1)
           (= Q V1)
           (= R W1)
           (= S X1)
           (= T Y1)
           (= U Z1)
           (= V A2)
           (= W B2)
           (= X C2)
           (= Y D2)
           (= Z E2)
           (= A1 F2)
           (= B1 G2)
           (= F1 0.0)
           (= G1 0.0)
           (= H1 I1))
      a!45
      a!46
      (and A
           (not B)
           C
           (not D)
           (not H2)
           I2
           J2
           (not K2)
           (not (= D2 0.0))
           (not (= D2 6.0))
           (not (= D2 5.0))
           (not (= D2 4.0))
           (not (= D2 3.0))
           (not (= D2 2.0))
           (not (= D2 1.0))
           (= E J1)
           (= F K1)
           (= G D2)
           (= G L1)
           (= H M1)
           (= I N1)
           (= J O1)
           (= K P1)
           (= L Q1)
           (= M R1)
           (= N S1)
           (= O T1)
           (= P U1)
           (= Q V1)
           (= R W1)
           (= S X1)
           (= T Y1)
           (= U Z1)
           (= V A2)
           (= W B2)
           (= X C2)
           (= Z E2)
           (= A1 F2)
           (= B1 G2)
           (= F1 C1)
           (= G1 D1)
           (= H1 E1)))))))))))))
      )
      (state K2
       J2
       I2
       H2
       J1
       K1
       L1
       M1
       N1
       O1
       P1
       Q1
       R1
       S1
       T1
       U1
       V1
       W1
       X1
       Y1
       Z1
       A2
       B2
       C2
       D2
       E2
       F2
       G2
       F1
       G1
       H1)
    )
  )
)
(assert
  (forall ( (A Bool) (B Bool) (C Bool) (D Bool) (E Real) (F Real) (G Real) (H Real) (I Real) (J Real) (K Real) (L Real) (M Real) (N Real) (O Real) (P Real) (Q Real) (R Real) (S Real) (T Real) (U Real) (V Real) (W Real) (X Real) (Y Real) (Z Real) (A1 Real) (B1 Real) (C1 Real) (D1 Real) (E1 Real) ) 
    (=>
      (and
        (state A B C D E F G H I J K L M N O P Q R S T U V W X Y Z A1 B1 C1 D1 E1)
        (and (not C) (not B) (= A true) (= D true))
      )
      false
    )
  )
)

(check-sat)
(exit)
